p cnf 29 74
a 4 6 0
e 1 2 3 5 7 8 9 10 11 12 13 14 15 16 17 18 19 20 21 22 23 24 25 26 27 28 29 0
4 -2 0
4 -3 0
2 3 -4 0
-5 -1 0
-5 4 0
1 -4 5 0
6 3 0
6 1 0
-3 -1 -6 0
6 7 0
-6 7 0
9 -8 0
9 -4 0
8 4 -9 0
-11 -9 0
-11 10 0
9 -10 11 0
-7 11 -12 0
7 -11 -12 0
-7 -11 12 0
7 11 12 0
-5 12 -13 0
5 -12 -13 0
-5 -12 13 0
5 12 13 0
-4 8 -14 0
4 -8 -14 0
-4 -8 14 0
4 8 14 0
17 15 0
17 -16 0
-15 16 -17 0
-18 -3 0
-18 -8 0
3 8 18 0
-19 1 0
-19 18 0
-1 -18 19 0
-20 19 0
-20 -15 0
-19 15 20 0
-22 -1 0
-22 -21 0
1 21 22 0
23 22 0
23 1 0
-22 -1 -23 0
24 -8 0
24 23 0
8 -23 -24 0
-25 -20 0
-25 24 0
20 -24 25 0
-26 19 0
-26 25 0
-19 -25 26 0
-27 17 0
-27 26 0
-17 -26 27 0
14 27 -28 0
-14 -27 -28 0
14 -27 28 0
-14 27 28 0
-29 13 0
-29 28 0
-13 -28 29 0
-20 11 13 19 -4 0
-19 10 -16 21 -14 -7 -17 0
-6 14 -23 0
-27 3 10 -13 -28 1 -24 0
-29 8 -5 -12 0
-13 15 -5 21 0
-6 -29 -17 -5 -13 24 -20 0
29 0
